s td 10 21 30
b 1 1 4 5 8 9 10 11 12 13 15 16 18 19 20 21 22 25 26 27 28 30
b 2 2 4 5 8 9 10 11 12 13 15 16 18 19 20 21 22 25 26 27 28 30
b 3 2 3 4 5 8 9 11 12 13 15 16 18 19 20 21 22 25 26 28
b 4 3 9 11 12 14 15 16 18 19 20 21 22 25 26 28
b 5 2 4 5 6 8 9 10 11 12 13 16 18 19 20 21 22 26 27 28 30
b 6 2 4 5 6 9 10 11 12 13 16 18 19 20 21 22 26 27 29 30
b 7 2 4 5 10 11 13 18 19 20 22 24 27 29
b 8 1 4 5 7 8 9 10 11 12 15 16 18 19 20 21 22 25 26 27 28 30
b 9 4 5 7 8 10 11 12 15 16 17 18 19 20 21 25 26 27 28 30
b 10 4 7 8 12 15 16 17 19 20 21 23 25 27 30
1 2
1 8
2 3
2 5
3 4
5 6
6 7
8 9
9 10
